# Hex xtal + ligands + ligand-xtal interactions

# initialization
units 		real
boundary 	p p p

atom_style	molecular  			# Allows for bonds, angles and torsions to be specified.
bond_style 	harmonic			# E = K(r-r0)^2
angle_style	harmonic			# E = K(t-t0)^2
dihedral_style	opls				# E = K1/2(1+cos(phi)) + K2/2(1-cos(2phi)) + K3/2(1+cos(3phi))
# atom_modify first command may be useful for full system, put ligands first

variable	TargetT equal 340

pair_style	lj/cut 14.0			# Cutoff distance in A for the LJ potential.

pair_modify 	shift yes mix arithmetic	# Shift the potential at the cutoff and use
						# arithmetic mixing rules to determine the 
						# interaction parameters for different 'atom'
						# types.

read_data	shifted_DO.351
# read_restart	restart.ordered
#read_restart	../restart.${TargetT}

group 		ligand/solvent type 1 2 5 6
group		ligand type 1 2
group		solvent type 5 6
group		xtal type 3 4

compute		MyTemp ligand/solvent temp

variable	xlo equal 0
variable	xhi equal 82
variable	ylo equal 35
variable	yhi equal 50
variable 	zlo equal 0
variable	zhi equal 81
region		BulkSolv block ${xlo} ${xhi} ${ylo} ${yhi} ${zlo} ${zhi} side in units box
#region		Cell block EDGE EDGE 78 EDGE EDGE EDGE side in units box
#variable	NSolv equal count(solvent,Cell)


# Main run

pair_coeff	1 1 0.195  3.75			# For i-j interactions, define eps_ij and sigma_ij
pair_coeff	1 3 0.143  3.54			
pair_coeff	1 4 0.143  3.54			
pair_coeff	2 2 0.0914 3.95
pair_coeff	2 3 0.111  3.54			
pair_coeff	2 4 0.111  3.54			
pair_coeff	3 3 0.0    0.0
pair_coeff	3 5 0.143 3.54
pair_coeff	3 6 0.111 3.54
pair_coeff	4 4 0   0.0
pair_coeff	4 5 0.143 3.54
pair_coeff	4 6 0.111 3.54
pair_coeff	5 5 0.195 3.75
pair_coeff	6 6 0.0914 3.95

bond_coeff	* 95.9 1.54			# For all bonds, define K and r0

angle_coeff	* 62.1 114			# For all angles, define K and theta0

dihedral_coeff	* 1.4114 -0.2711 3.1458 0	# For all dihedrals, define Ki, note that K4=0 needs to be defined

#special_bonds	lj 0.0 0.0 0.0			# For some reason this command produces an error message complaining that the number of arguments is incorrect. Since the default should be the same I have left it out.
						# Turns off the lj interaction btw 1st, 2nd,
						# and 3rd nearest neighbours.

thermo		1000
thermo_style	custom step temp c_MyTemp etotal ke pe 
#thermo_modify 	flush yes
# variable	t world 349.0 349.5 350.0 350.5 351.0 351.5
variable	t world 355.0 358.0

fix		myfix ligand/solvent nvt temp $t $t 100
fix_modify	myfix temp MyTemp
# fix		myfix ligand/solvent temp/berendsen $t $t 10 
fix             plumed all plumed plumedfile soft.plu outfile soft${t}.out
fix_modify	plumed energy yes
# minimize	1.0e-4 1.0e-6 100 1000
# dump		1 all xyz 1 dump.rplc_plm.$t.xyz
# log		log.rplc_plm
# temper		50 5 $t myfix 3847 58382
minimize	1.0e-4 1.0e-6 100 1000
reset_timestep	0
dump		1 all xyz 1000 dump.rplc_plm.$t.xyz
# log		log.rplc_plm
temper		1000000 1000 $t myfix 3847 58382
write_restart	restart.rplcplm.$t
unfix		myfix
unfix		plumed
undump		1

